NAME : instance_6_900
TYPE : TSP
DIMENSION : 6
EDGE_WEIGHT_TYPE : EUC_2D
LOWER : 0
UPPER : 100
NODE_COORD_SECTION
1 39.6907885792 94.3982418394
2 76.8969733268 52.1881246939
3 90.293433005 48.3805602882
4 95.254672179 97.3308983259
5 44.2501238547 56.3224169193
6 56.1864488758 26.7519982764
EOF
